homework/2/sat_in/bonus/34.wcnf
p wcnf 10 38 11
1 -1 0
1 -2 0
1 -3 0
1 -4 0
1 -5 0
1 -6 0
1 -7 0
1 -8 0
1 -9 0
1 -10 0
11 1 2 0
11 1 3 0
11 1 5 0
11 1 7 0
11 1 8 0
11 2 3 0
11 2 4 0
11 2 5 0
11 2 6 0
11 2 7 0
11 2 8 0
11 3 6 0
11 3 7 0
11 3 8 0
11 3 9 0
11 4 5 0
11 4 6 0
11 4 8 0
11 4 9 0
11 4 10 0
11 5 6 0
11 5 7 0
11 5 10 0
11 6 7 0
11 7 8 0
11 7 10 0
11 8 10 0
11 9 10 0
