homework/2/sat_in/task3/34.cnf
p cnf 30 306
1 2 3 4 5 6 7 8 9 10 0
-1 -2 0
-1 -3 0
-1 -4 0
-1 -5 0
-1 -6 0
-1 -7 0
-1 -8 0
-1 -9 0
-1 -10 0
-2 -3 0
-2 -4 0
-2 -5 0
-2 -6 0
-2 -7 0
-2 -8 0
-2 -9 0
-2 -10 0
-3 -4 0
-3 -5 0
-3 -6 0
-3 -7 0
-3 -8 0
-3 -9 0
-3 -10 0
-4 -5 0
-4 -6 0
-4 -7 0
-4 -8 0
-4 -9 0
-4 -10 0
-5 -6 0
-5 -7 0
-5 -8 0
-5 -9 0
-5 -10 0
-6 -7 0
-6 -8 0
-6 -9 0
-6 -10 0
-7 -8 0
-7 -9 0
-7 -10 0
-8 -9 0
-8 -10 0
-9 -10 0
11 12 13 14 15 16 17 18 19 20 0
-11 -12 0
-11 -13 0
-11 -14 0
-11 -15 0
-11 -16 0
-11 -17 0
-11 -18 0
-11 -19 0
-11 -20 0
-12 -13 0
-12 -14 0
-12 -15 0
-12 -16 0
-12 -17 0
-12 -18 0
-12 -19 0
-12 -20 0
-13 -14 0
-13 -15 0
-13 -16 0
-13 -17 0
-13 -18 0
-13 -19 0
-13 -20 0
-14 -15 0
-14 -16 0
-14 -17 0
-14 -18 0
-14 -19 0
-14 -20 0
-15 -16 0
-15 -17 0
-15 -18 0
-15 -19 0
-15 -20 0
-16 -17 0
-16 -18 0
-16 -19 0
-16 -20 0
-17 -18 0
-17 -19 0
-17 -20 0
-18 -19 0
-18 -20 0
-19 -20 0
21 22 23 24 25 26 27 28 29 30 0
-21 -22 0
-21 -23 0
-21 -24 0
-21 -25 0
-21 -26 0
-21 -27 0
-21 -28 0
-21 -29 0
-21 -30 0
-22 -23 0
-22 -24 0
-22 -25 0
-22 -26 0
-22 -27 0
-22 -28 0
-22 -29 0
-22 -30 0
-23 -24 0
-23 -25 0
-23 -26 0
-23 -27 0
-23 -28 0
-23 -29 0
-23 -30 0
-24 -25 0
-24 -26 0
-24 -27 0
-24 -28 0
-24 -29 0
-24 -30 0
-25 -26 0
-25 -27 0
-25 -28 0
-25 -29 0
-25 -30 0
-26 -27 0
-26 -28 0
-26 -29 0
-26 -30 0
-27 -28 0
-27 -29 0
-27 -30 0
-28 -29 0
-28 -30 0
-29 -30 0
-1 -11 0
-1 -21 0
-11 -21 0
-2 -12 0
-2 -22 0
-12 -22 0
-3 -13 0
-3 -23 0
-13 -23 0
-4 -14 0
-4 -24 0
-14 -24 0
-5 -15 0
-5 -25 0
-15 -25 0
-6 -16 0
-6 -26 0
-16 -26 0
-7 -17 0
-7 -27 0
-17 -27 0
-8 -18 0
-8 -28 0
-18 -28 0
-9 -19 0
-9 -29 0
-19 -29 0
-10 -20 0
-10 -30 0
-20 -30 0
-1 -12 0
-11 -2 0
-1 -22 0
-21 -2 0
-11 -22 0
-21 -12 0
-1 -13 0
-11 -3 0
-1 -23 0
-21 -3 0
-11 -23 0
-21 -13 0
-1 -15 0
-11 -5 0
-1 -25 0
-21 -5 0
-11 -25 0
-21 -15 0
-1 -17 0
-11 -7 0
-1 -27 0
-21 -7 0
-11 -27 0
-21 -17 0
-1 -18 0
-11 -8 0
-1 -28 0
-21 -8 0
-11 -28 0
-21 -18 0
-2 -13 0
-12 -3 0
-2 -23 0
-22 -3 0
-12 -23 0
-22 -13 0
-2 -14 0
-12 -4 0
-2 -24 0
-22 -4 0
-12 -24 0
-22 -14 0
-2 -15 0
-12 -5 0
-2 -25 0
-22 -5 0
-12 -25 0
-22 -15 0
-2 -16 0
-12 -6 0
-2 -26 0
-22 -6 0
-12 -26 0
-22 -16 0
-2 -17 0
-12 -7 0
-2 -27 0
-22 -7 0
-12 -27 0
-22 -17 0
-2 -18 0
-12 -8 0
-2 -28 0
-22 -8 0
-12 -28 0
-22 -18 0
-3 -16 0
-13 -6 0
-3 -26 0
-23 -6 0
-13 -26 0
-23 -16 0
-3 -17 0
-13 -7 0
-3 -27 0
-23 -7 0
-13 -27 0
-23 -17 0
-3 -18 0
-13 -8 0
-3 -28 0
-23 -8 0
-13 -28 0
-23 -18 0
-3 -19 0
-13 -9 0
-3 -29 0
-23 -9 0
-13 -29 0
-23 -19 0
-4 -15 0
-14 -5 0
-4 -25 0
-24 -5 0
-14 -25 0
-24 -15 0
-4 -16 0
-14 -6 0
-4 -26 0
-24 -6 0
-14 -26 0
-24 -16 0
-4 -18 0
-14 -8 0
-4 -28 0
-24 -8 0
-14 -28 0
-24 -18 0
-4 -19 0
-14 -9 0
-4 -29 0
-24 -9 0
-14 -29 0
-24 -19 0
-4 -20 0
-14 -10 0
-4 -30 0
-24 -10 0
-14 -30 0
-24 -20 0
-5 -16 0
-15 -6 0
-5 -26 0
-25 -6 0
-15 -26 0
-25 -16 0
-5 -17 0
-15 -7 0
-5 -27 0
-25 -7 0
-15 -27 0
-25 -17 0
-5 -20 0
-15 -10 0
-5 -30 0
-25 -10 0
-15 -30 0
-25 -20 0
-6 -17 0
-16 -7 0
-6 -27 0
-26 -7 0
-16 -27 0
-26 -17 0
-7 -18 0
-17 -8 0
-7 -28 0
-27 -8 0
-17 -28 0
-27 -18 0
-7 -20 0
-17 -10 0
-7 -30 0
-27 -10 0
-17 -30 0
-27 -20 0
-8 -20 0
-18 -10 0
-8 -30 0
-28 -10 0
-18 -30 0
-28 -20 0
-9 -20 0
-19 -10 0
-9 -30 0
-29 -10 0
-19 -30 0
-29 -20 0
